desiredZ=[1];
nNurses = 173;
hours = 65;
demand = [1 37 40 30 35 25 6 10 17 25 17 0 27 21 15 26 26 30 30 41 34 37 2 31 11 37 6 15 22 1 29 39 6 9 9 10 24 1 26 34 12 28 10 29 14 4 4 11 30 41 1 34 7 37 20 10 36 34 18 16 30 16 40 41 25];
minHours = 15;
maxHours = 38;
maxConsec = 17;
maxPresence = 42;